20	5
0	3	8	1	2
1	0
2	3	9	18	11
3	1	16
4	1	13
5	1	21
6	1	14
7	1	5
8	1	6
9	3	19	4	12
10	3	9	18	11
11	2	20	12
12	1	15
13	1	7
14	1	10
15	1	17
16	1	21
17	1	21
18	1	21
19	1	21
20	1	21
21	0
0	0	0	0	0	0	0
1	4	0	4	0	5	0
2	8	0	0	1	5	0
3	10	0	3	0	4	3
4	5	0	1	4	0	0
5	9	0	3	5	0	5
6	10	0	0	0	2	0
7	9	4	0	0	0	5
8	9	4	0	0	0	2
9	7	3	0	0	0	0
10	2	0	3	5	3	0
11	9	0	3	1	0	5
12	6	0	0	3	0	0
13	2	4	0	1	4	0
14	10	3	0	1	5	3
15	1	0	0	4	3	0
16	8	0	3	0	1	3
17	4	1	4	4	1	1
18	6	0	2	0	4	0
19	7	4	4	0	0	3
20	1	3	2	0	1	0
21	0	0	0	0	0	0
6	6	6	6	7
